certificates/rado_a10_c242_N25.drat
-24 -25 0
-25 0
17 0
24 0
-22 0
-15 0
-19 0
3 0
14 0
7 0
23 0
11 0
-1 0
-5 0
-2 0
-12 0
-16 0
-9 0
0
